NAME : cp-n6-k2
COMMENT : (Claudio Procida)
TYPE : CVRP
DIMENSION : 6
EDGE_WEIGHT_TYPE : EUC_2D
CAPACITY : 75
NODE_COORD_SECTION
1	50	20
2	40  20
3	50	 0
4	10	10
5	20	30
6	10	50
DEMAND_SECTION
1	0
2	20
3	15
4	16
5	24
6	32
DEPOT_SECTION
1
-1
EOF
